letting n_nurses=25
letting n_days=7
letting n_shift_types=4
letting max_covers=9
letting t_covers=87
letting covers=[9,4,9,0,4,3,8,0,8,4,4,0,3,3,1,0,7,2,6,0,2,1,0,0,5,1,3,0]
letting prefes=[1,2,1,4,4,4,4,2,4,1,4,1,1,3,1,1,4,4,4,2,4,4,4,2,4,1,4,1,1,2,1,4,1,1,1,2,1,1,4,1,2,3,1,1,1,1,1,2,1,1,1,2,1,1,4,1,1,2,1,4,4,4,4,2,4,1,4,1,1,3,1,1,4,4,4,2,4,4,4,2,4,1,4,1,1,2,1,4,1,4,4,2,4,1,4,1,1,1,1,1,1,4,4,2,1,4,4,2,4,1,4,1,4,2,2,4,4,4,4,2,4,1,1,1,2,3,2,1,4,4,4,2,4,4,4,2,4,1,1,1,1,2,1,4,4,4,4,2,4,1,1,2,2,3,1,1,4,4,4,2,4,4,4,2,4,1,1,2,1,1,1,4,1,1,1,1,1,1,4,1,1,3,1,1,1,1,1,1,1,1,1,1,1,1,4,1,1,2,1,4,4,4,4,2,4,1,4,1,2,3,1,2,4,4,4,2,4,4,4,2,4,1,4,1,4,1,1,4,1,4,4,1,4,2,4,1,2,3,2,2,1,4,4,1,1,4,4,1,4,2,4,1,1,2,1,4,1,4,1,2,1,1,4,1,2,3,1,1,1,4,1,2,1,4,1,2,1,1,4,1,1,2,1,4,1,4,4,2,4,2,4,1,2,3,1,1,1,4,4,2,1,4,4,2,4,2,4,1,1,2,1,1,1,1,4,2,4,1,4,2,2,3,1,1,1,1,4,2,1,1,4,2,4,1,4,2,1,2,2,1,1,4,4,2,4,1,1,1,2,3,1,2,1,4,4,2,1,4,4,2,4,1,1,1,1,1,1,4,1,4,4,1,4,1,4,2,2,3,1,1,1,4,4,1,1,4,4,1,4,1,4,2,4,2,2,4,1,4,4,2,4,2,4,1,2,1,1,1,1,4,4,2,1,4,4,2,4,2,4,1,1,2,1,4,1,1,4,2,4,1,1,1,1,1,1,1,1,1,4,2,1,1,4,2,4,1,1,1,4,2,2,4,1,4,1,2,1,2,4,1,2,3,1,1,1,4,1,2,1,4,1,2,1,2,4,1,1,2,1,4,1,1,4,2,4,1,4,2,2,3,1,1,1,1,4,2,1,1,4,2,4,1,4,2,1,1,2,1,1,4,4,1,4,1,4,1,2,3,1,1,1,4,4,1,1,4,4,1,4,1,4,1,1,2,1,1,1,4,4,2,4,1,4,1,2,3,2,1,1,4,4,2,1,4,4,2,4,1,4,1,1,1,1,4,1,4,4,1,4,1,4,1,2,3,2,2,1,4,4,1,1,4,4,1,4,1,4,1,1,2,1,1,1,4,4,2,4,2,4,1,2,3,1,1,1,4,4,2,1,4,4,2,4,2,4,1,1,2,1,4,1,4,1,2,1,1,4,1,2,3,1,1,1,4,1,2,1,4,1,2,1,1,4,1,1,2,1,4,1,4,4,2,4,1,4,2,2,1,2,1,1,4,4,2,1,4,4,2,4,1,4,2,4,2,1,4,1,4,4,2,4,1,1,1,2,1,1,2,1,4,4,2,1,4,4,2,4,1,1,1]
letting ub =  222
